100 151336
80 97 63 81 99 77 96 33 92 94 57 21 32 85 44 67 27 13 20 78 69 61 68 88 95 22 12 56 17 4 16 66 73 38 9 47 34 26 36 39 3 86 87 30 71 48 91 76 51 53 2 89 75 55 46 70 83 84 23 18 82 52 74 59 93 64 49 40 14 45 29 43 79 8 1 24 41 37 11 62 42 5 98 35 6 60 19 50 25 31 7 90 72 10 15 58 100 54 28 65 
